AES/1_5_4/ssaes_r1-20_c5_rw1_e4_f0_k1-20_aes_canon_box_aes_mc_bidirectional/ExperimentMinisat_r17_k16cnf_2011-10-29-165447/Result
WARNING: for repeatability, setting FPU to use double precision
============================[ Problem Statistics ]=============================
|                                                                             |
|  Number of variables:          3188                                         |
|  Number of clauses:           18950                                         |
|  Parse time:                   0.01 s                                       |
|  Eliminated clauses:           0.03 Mb                                      |
|  Simplification time:          0.02 s                                       |
|                                                                             |
=============================[ Search Statistics ]==============================
| Conflicts  |          ORIGINAL         |          LEARNT          | Progress |
|            |    Vars  Clauses Literals |    Limit  Clauses Lit/Cl |          |
================================================================================
|        100 |    2618    17266    53594 |     6330      100     25 |  3.388 % |
|        250 |    2618    17266    53594 |     6963      250     28 |  3.388 % |
|        475 |    2618    17266    53594 |     7660      475     36 |  3.388 % |
|        812 |    2618    17266    53594 |     8426      812     37 |  3.388 % |
|       1318 |    2618    17266    53594 |     9269     1318     36 |  3.388 % |
|       2077 |    2618    17266    53594 |    10195     2077     36 |  3.388 % |
|       3216 |    2618    17266    53594 |    11215     3216     38 |  3.388 % |
|       4924 |    2618    17266    53594 |    12337     4924     38 |  3.388 % |
|       7486 |    2618    17266    53594 |    13570     7486     38 |  3.388 % |
|      11330 |    2618    17266    53594 |    14927    11330     37 |  3.388 % |
|      17096 |    2618    17266    53594 |    16420     9532     29 |  3.388 % |
|      25745 |    2618    17266    53594 |    18062     9883     28 |  3.388 % |
|      38719 |    2618    17266    53594 |    19868    13705     29 |  3.388 % |
|      58180 |    2618    17266    53594 |    21855    13078     26 |  3.388 % |
|      87372 |    2618    17266    53594 |    24041    20156     28 |  3.388 % |
|     131161 |    2618    17266    53594 |    26445    15404     26 |  3.388 % |
|     196845 |    2618    17266    53594 |    29090    14437     22 |  3.388 % |
|     295371 |    2618    17266    53594 |    31999    24969     25 |  3.388 % |
|     443160 |    2618    17266    53594 |    35199    27741     23 |  3.388 % |
|     664843 |    2618    17266    53594 |    38719    30740     24 |  3.388 % |
|     997368 |    2618    17266    53594 |    42590    29489     21 |  3.388 % |
|    1496156 |    2618    17266    53594 |    46849    36810     25 |  3.388 % |
|    2244338 |    2618    17266    53594 |    51534    26453     20 |  3.388 % |
|    3366612 |    2618    17266    53594 |    56688    23951     21 |  3.388 % |
|    5050023 |    2616    17250    53562 |    62357    23666     21 |  3.451 % |
===============================================================================
restarts              : 9394
conflicts             : 5900383        (3961 /sec)
decisions             : 6380176        (0.00 % random) (4283 /sec)
propagations          : 7705536977     (5172225 /sec)
conflict literals     : 155013895      (73.01 % deleted)
Memory used           : 35.00 MB
CPU time              : 1489.79 s

SATISFIABLE
